(set-info :smt-lib-version 2.6)
(set-logic AUFBVFPDTNIRA)
(set-info :source |
Generated by: AdaCore
Generated on: 2020-03-06
Generator: SPARK
Application: Program verification for Ada
Target solver: Z3
|)
(set-info :license "https://creativecommons.org/licenses/by/4.0/")
(set-info :category "industrial")
(set-info :status unknown)
;;; generated by SMT-LIB2 driver
;;; SMT-LIB2 driver: bit-vectors, common part
;;; SMT-LIB2: integer arithmetic
(declare-sort string 0)

(declare-datatypes () ((tuple0 (Tuple0))))
(declare-sort us_private 0)

(declare-fun private__bool_eq (us_private us_private) Bool)

(declare-const us_null_ext__ us_private)

(declare-sort us_type_of_heap 0)

(declare-datatypes ()
((us_type_of_heap__ref
 (us_type_of_heap__refqtmk (us_type_of_heap__content us_type_of_heap)))))
(declare-sort us_image 0)

(declare-datatypes () ((int__ref (int__refqtmk (int__content Int)))))
(declare-datatypes () ((bool__ref (bool__refqtmk (bool__content Bool)))))
(declare-datatypes ()
((us_fixed__ref (us_fixed__refqtmk (us_fixed__content Int)))))
(declare-datatypes () ((real__ref (real__refqtmk (real__content Real)))))
(declare-datatypes ()
((us_private__ref (us_private__refqtmk (us_private__content us_private)))))
(define-fun int__ref___projection ((a int__ref)) Int (int__content a))

(define-fun us_fixed__ref___projection ((a us_fixed__ref)) Int (us_fixed__content
                                                               a))

(define-fun bool__ref___projection ((a bool__ref)) Bool (bool__content a))

(define-fun real__ref___projection ((a real__ref)) Real (real__content a))

(define-fun us_private__ref___projection ((a us_private__ref)) us_private 
  (us_private__content a))

(declare-const i45s Int)

(declare-const attr__ATTRIBUTE_ADDRESS Int)

(declare-sort rec_int_bad 0)

(declare-fun rec_int_badqtint (rec_int_bad) Int)

;; rec_int_bad'axiom
  (assert
  (forall ((i rec_int_bad))
  (and (<= (- 2147483648) (rec_int_badqtint i))
  (<= (rec_int_badqtint i) 2147483647))))

(define-fun in_range ((x Int)) Bool (and (<= (- 2147483648) x)
                                    (<= x 2147483647)))

(declare-fun attr__ATTRIBUTE_IMAGE (Int) us_image)

(declare-fun attr__ATTRIBUTE_VALUE__pre_check (us_image) Bool)

(declare-fun attr__ATTRIBUTE_VALUE (us_image) Int)

(declare-fun user_eq (rec_int_bad rec_int_bad) Bool)

(declare-const dummy rec_int_bad)

(declare-datatypes ()
((rec_int_bad__ref (rec_int_bad__refqtmk (rec_int_bad__content rec_int_bad)))))
(define-fun rec_int_bad__ref_rec_int_bad__content__projection ((a rec_int_bad__ref)) rec_int_bad 
  (rec_int_bad__content a))

(define-fun to_rep ((x rec_int_bad)) Int (rec_int_badqtint x))

(declare-fun of_rep (Int) rec_int_bad)

;; inversion_axiom
  (assert
  (forall ((x rec_int_bad))
  (! (= (of_rep (to_rep x)) x) :pattern ((to_rep x)) )))

;; range_axiom
  (assert
  (forall ((x rec_int_bad)) (! (in_range (to_rep x)) :pattern ((to_rep x)) )))

;; coerce_axiom
  (assert
  (forall ((x Int))
  (! (=> (in_range x) (= (to_rep (of_rep x)) x)) :pattern ((to_rep
                                                           (of_rep x))) )))

(declare-datatypes ()
((us_split_fields
 (us_split_fieldsqtmk (rec__preds__rec_wrap_bad__x rec_int_bad)))))
(define-fun us_split_fields_rec__preds__rec_wrap_bad__x__projection ((a us_split_fields)) rec_int_bad 
  (rec__preds__rec_wrap_bad__x a))

(declare-datatypes ()
((us_split_fields__ref
 (us_split_fields__refqtmk (us_split_fields__content us_split_fields)))))
(define-fun us_split_fields__ref___split_fields__content__4__projection ((a us_split_fields__ref)) us_split_fields 
  (us_split_fields__content a))

(declare-datatypes ()
((us_rep (us_repqtmk (us_split_fields1 us_split_fields)))))
(define-fun us_rep___split_fields__4__projection ((a us_rep)) us_split_fields 
  (us_split_fields1 a))

(define-fun bool_eq ((a us_rep)
  (b us_rep)) Bool (ite (= (to_rep
                           (rec__preds__rec_wrap_bad__x (us_split_fields1 a))) 
                   (to_rep
                   (rec__preds__rec_wrap_bad__x (us_split_fields1 b)))) true
                   false))

(declare-const value__size Int)

(declare-const object__size Int)

(declare-const alignment Int)

;; value__size_axiom
  (assert (<= 0 value__size))

;; object__size_axiom
  (assert (<= 0 object__size))

;; alignment_axiom
  (assert (<= 0 alignment))

(declare-const preds__rec_wrap_bad__x__first__bit Int)

(declare-const preds__rec_wrap_bad__x__last__bit Int)

(declare-const preds__rec_wrap_bad__x__position Int)

;; preds__rec_wrap_bad__x__first__bit_axiom
  (assert (<= 0 preds__rec_wrap_bad__x__first__bit))

;; preds__rec_wrap_bad__x__last__bit_axiom
  (assert
  (< preds__rec_wrap_bad__x__first__bit preds__rec_wrap_bad__x__last__bit))

;; preds__rec_wrap_bad__x__position_axiom
  (assert (<= 0 preds__rec_wrap_bad__x__position))

(declare-fun user_eq1 (us_rep us_rep) Bool)

(declare-const dummy1 us_rep)

(declare-datatypes ()
((rec_wrap_bad__ref (rec_wrap_bad__refqtmk (rec_wrap_bad__content us_rep)))))
(define-fun rec_wrap_bad__ref_rec_wrap_bad__content__projection ((a rec_wrap_bad__ref)) us_rep 
  (rec_wrap_bad__content a))

(declare-const attr__ATTRIBUTE_ADDRESS1 Int)

(define-fun dynamic_invariant ((temp___expr_358 us_rep)
  (temp___is_init_354 Bool) (temp___skip_constant_355 Bool)
  (temp___do_toplevel_356 Bool)
  (temp___do_typ_inv_357 Bool)) Bool (let ((temp___360 (to_rep
                                                       (rec__preds__rec_wrap_bad__x
                                                       (us_split_fields1
                                                       temp___expr_358)))))
                                     (or
                                     (and (<= (- 2147483648) temp___360)
                                     (<= temp___360 (- 1)))
                                     (and (<= 1 temp___360)
                                     (<= temp___360 2147483647)))))

(define-fun default_initial_assumption ((temp___expr_363 us_rep)
  (temp___skip_top_level_364 Bool)) Bool (= (to_rep
                                            (rec__preds__rec_wrap_bad__x
                                            (us_split_fields1
                                            temp___expr_363))) 0))

(declare-const attr__ATTRIBUTE_ADDRESS2 Int)

(define-fun dynamic_invariant1 ((temp___expr_336 Int)
  (temp___is_init_332 Bool) (temp___skip_constant_333 Bool)
  (temp___do_toplevel_334 Bool)
  (temp___do_typ_inv_335 Bool)) Bool (and
                                     (=>
                                     (or (= temp___is_init_332 true)
                                     (<= (- 2147483648) 2147483647))
                                     (in_range temp___expr_336))
                                     (=> (= temp___do_toplevel_334 true)
                                     (or
                                     (and (<= (- 2147483648) temp___expr_336)
                                     (<= temp___expr_336 (- 1)))
                                     (and (<= 1 temp___expr_336)
                                     (<= temp___expr_336 2147483647))))))

(define-fun dynamic_predicate ((temp___340 Int)) Bool (or
                                                      (and
                                                      (<= (- 2147483648) temp___340)
                                                      (<= temp___340 (- 1)))
                                                      (and (<= 1 temp___340)
                                                      (<= temp___340 2147483647))))

(declare-const x__split_fields rec_int_bad)

;; Assume
  (assert (dynamic_invariant1 i45s true false true true))

;; Assume
  (assert (dynamic_invariant1 i45s true false true true))

;; Assume
  (assert (dynamic_invariant
  (us_repqtmk (us_split_fieldsqtmk x__split_fields)) false false true true))

(declare-const usf rec_int_bad)

(declare-const usf1 rec_int_bad)

;; Ensures
  (assert (= (to_rep usf1) 0))

(define-fun temp___453 () Int (to_rep usf1))

(assert
;; defqtvc
 ;; File "preds.adb", line 69, characters 0-0
  (not
  (or (and (<= (- 2147483648) temp___453) (<= temp___453 (- 1)))
  (and (<= 1 temp___453) (<= temp___453 2147483647)))))
(check-sat)
